cases/pglib-opf/pglib_opf_case89_pegase.m
ipopt
ACT
[info | PowerModels]: removing 1 cost terms from generator 4: [3258.3235999999997, 0.0]
[info | PowerModels]: removing 1 cost terms from generator 1: [658.6541000000001, 0.0]
[info | PowerModels]: removing 1 cost terms from generator 12: [1765.5344, 0.0]
[info | PowerModels]: removing 1 cost terms from generator 2: [3479.4851000000003, 0.0]
[info | PowerModels]: removing 1 cost terms from generator 6: [2770.7032000000004, 0.0]
[info | PowerModels]: removing 1 cost terms from generator 11: [3127.1293, 0.0]
[info | PowerModels]: removing 1 cost terms from generator 5: [1676.2466, 0.0]
[info | PowerModels]: removing 1 cost terms from generator 7: [839.8332999999999, 0.0]
[info | PowerModels]: removing 1 cost terms from generator 8: [3799.2336999999998, 0.0]
[info | PowerModels]: removing 1 cost terms from generator 10: [2251.779, 0.0]
[info | PowerModels]: removing 1 cost terms from generator 9: [2076.0836999999997, 0.0]
[info | PowerModels]: removing 1 cost terms from generator 3: [4229.3854, 0.0]

******************************************************************************
This program contains Ipopt, a library for large-scale nonlinear optimization.
 Ipopt is released as open source code under the Eclipse Public License (EPL).
         For more information visit http://projects.coin-or.org/Ipopt
******************************************************************************

This is Ipopt version 3.13.2, running with linear solver mumps.
NOTE: Other linear solvers might be more efficient (see Ipopt documentation).

Number of nonzeros in equality constraint Jacobian...:     5883
Number of nonzeros in inequality constraint Jacobian.:     1664
Number of nonzeros in Lagrangian Hessian.............:     2694

Total number of variables............................:     1454
                     variables with only lower bounds:        0
                variables with lower and upper bounds:     1365
                     variables with only upper bounds:        0
Total number of equality constraints.................:     1431
Total number of inequality constraints...............:      832
        inequality constraints with only lower bounds:      206
   inequality constraints with lower and upper bounds:        0
        inequality constraints with only upper bounds:      626

iter    objective    inf_pr   inf_du lg(mu)  ||d||  lg(rg) alpha_du alpha_pr  ls
   0  8.1215627e+04 1.30e+01 1.00e+02  -1.0 0.00e+00    -  0.00e+00 0.00e+00   0
   1  8.2097695e+04 1.26e+01 9.75e+01  -1.0 1.46e+01    -  2.27e-02 2.67e-02h  1
   2  8.1780596e+04 1.23e+01 9.65e+01  -1.0 3.78e+01    -  4.40e-03 2.91e-02f  1
   3  8.0986679e+04 1.15e+01 9.25e+01  -1.0 3.81e+01    -  3.36e-02 6.70e-02f  1
   4  7.6716978e+04 9.80e+00 8.44e+01  -1.0 1.01e+02    -  6.97e-02 1.44e-01f  1
   5  7.6198144e+04 8.43e+00 6.51e+01  -1.0 1.20e+02    -  3.22e-01 1.40e-01f  1
   6  8.0206434e+04 6.68e+00 1.27e+02  -1.0 1.09e+02    -  3.98e-01 2.08e-01h  1
   7  8.0587348e+04 6.57e+00 1.25e+02  -1.0 9.24e+01    -  3.75e-01 1.64e-02h  3
   8  8.0715904e+04 6.53e+00 1.25e+02  -1.0 9.23e+01    -  3.68e-02 5.01e-03h  7
   9  8.0814449e+04 6.50e+00 1.24e+02  -1.0 9.23e+01    -  5.07e-01 4.34e-03h  7
iter    objective    inf_pr   inf_du lg(mu)  ||d||  lg(rg) alpha_du alpha_pr  ls
  10  8.0835268e+04 6.50e+00 1.24e+02  -1.0 9.23e+01    -  1.81e-01 8.09e-04h 10
  11  9.5398287e+04 2.84e+00 3.41e+02  -1.0 9.22e+01    -  7.98e-02 5.63e-01H  1
  12  9.8843615e+04 1.83e+00 2.24e+02  -1.0 6.76e+01    -  9.43e-01 3.56e-01h  1
  13  1.0289929e+05 8.84e-01 8.19e+01  -1.0 4.93e+01    -  9.90e-01 5.16e-01h  1
  14  1.0454527e+05 5.11e-01 7.04e+01  -1.0 2.75e+01    -  3.31e-01 4.22e-01h  1
  15  1.0513505e+05 3.89e-01 5.57e+01  -1.0 1.67e+01    -  2.94e-01 2.38e-01h  1
  16  1.0514986e+05 3.86e-01 5.49e+01  -1.0 4.44e+01    -  1.54e-01 8.69e-03h  1
  17  1.0688376e+05 9.53e-02 2.68e+01  -1.0 1.28e+01    -  1.48e-01 7.53e-01h  1
  18  1.0728715e+05 1.97e-01 8.11e+00  -1.0 3.80e+00    -  9.93e-01 6.80e-01h  1
  19  1.0742854e+05 6.02e-04 1.63e+02  -1.0 7.95e+00    -  1.00e+00 9.80e-01H  1
iter    objective    inf_pr   inf_du lg(mu)  ||d||  lg(rg) alpha_du alpha_pr  ls
  20  1.0744609e+05 2.84e-05 6.45e+00  -1.0 1.28e+00    -  1.00e+00 9.53e-01h  1
  21  1.0744682e+05 4.01e-07 1.70e-01  -1.0 1.64e-01    -  1.00e+00 1.00e+00f  1
  22  1.0730133e+05 1.40e-03 1.72e+02  -2.5 5.29e+00    -  6.74e-01 9.17e-01f  1
  23  1.0729511e+05 8.89e-04 1.31e+02  -2.5 1.19e+01    -  4.56e-01 3.62e-01h  1
  24  1.0728837e+05 1.42e-04 8.07e+01  -2.5 8.87e+00    -  8.52e-01 7.49e-01h  1
  25  1.0728803e+05 9.30e-07 6.47e+00  -2.5 6.81e+00    -  1.00e+00 1.00e+00h  1
  26  1.0728842e+05 1.70e-08 4.81e-03  -2.5 3.76e-01    -  1.00e+00 1.00e+00h  1
  27  1.0728841e+05 1.96e-10 3.65e-05  -2.5 9.81e-02    -  1.00e+00 1.00e+00h  1
  28  1.0728586e+05 2.70e-06 5.29e+00  -3.8 2.14e+00    -  9.56e-01 9.56e-01f  1
  29  1.0728581e+05 3.12e-09 1.12e-01  -3.8 5.88e-01    -  1.00e+00 1.00e+00h  1
iter    objective    inf_pr   inf_du lg(mu)  ||d||  lg(rg) alpha_du alpha_pr  ls
  30  1.0728581e+05 9.82e-13 1.69e-05  -3.8 6.14e-03    -  1.00e+00 1.00e+00h  1
  31  1.0728567e+05 1.11e-09 2.51e-02  -5.7 1.64e-01    -  1.00e+00 1.00e+00h  1
  32  1.0728567e+05 1.82e-12 5.01e-07  -5.7 8.78e-04    -  1.00e+00 1.00e+00h  1
  33  1.0728567e+05 1.82e-12 3.88e-06  -8.6 2.03e-03    -  1.00e+00 1.00e+00h  1
  34  1.0728567e+05 1.82e-12 6.18e-11  -8.6 9.68e-08    -  1.00e+00 1.00e+00h  1

Number of Iterations....: 34

                                   (scaled)                 (unscaled)
Objective...............:   2.5366728964497356e+03    1.0728567312820225e+05
Dual infeasibility......:   6.1836319558779805e-11    2.6152962713163777e-09
Constraint violation....:   4.1932912541348050e-14    1.8189894035458565e-12
Complementarity.........:   2.5059449088288763e-09    1.0598606810605181e-07
Overall NLP error.......:   2.5059449088288763e-09    1.0598606810605181e-07


Number of objective function evaluations             = 62
Number of objective gradient evaluations             = 35
Number of equality constraint evaluations            = 62
Number of inequality constraint evaluations          = 62
Number of equality constraint Jacobian evaluations   = 35
Number of inequality constraint Jacobian evaluations = 35
Number of Lagrangian Hessian evaluations             = 34
Total CPU secs in IPOPT (w/o function evaluations)   =      1.774
Total CPU secs in NLP function evaluations           =      2.306

EXIT: Optimal Solution Found.
Time to Solution........:4.85699200630188
